5
199
602
40	24
1	3	5	5	8	2	8	2	
2	2	9	4	12	3	
3	5	5	11	7	6	5	5	17	2	7	2	
4	3	9	6	7	5	4	3	
5	5	6	6	12	5	8	5	7	5	6	4	
6	1	9	5	
7	3	5	11	5	5	11	4	
8	5	6	9	5	7	7	4	11	3	6	3	
9	4	5	10	7	9	12	6	5	4	
10	2	7	6	12	3	
11	5	5	8	9	6	12	5	16	3	7	2	
12	4	8	11	6	6	23	3	6	2	
13	4	6	6	21	3	7	3	6	3	
14	3	12	5	23	4	16	3	
15	2	5	12	21	2	
16	1	8	3	
17	2	4	3	4	2	
18	1	19	3	
19	4	21	4	5	4	22	3	4	3	
20	4	4	10	7	4	17	2	7	2	
21	3	7	9	5	4	6	3	
22	4	4	12	7	6	13	3	6	2	
23	1	18	4	
24	2	6	8	15	3	
25	2	6	9	7	7	
26	3	5	4	9	3	5	2	
27	5	6	9	17	4	6	3	12	2	7	2	
28	3	7	6	9	5	7	4	
29	2	7	4	7	2	
30	5	4	12	5	5	12	4	23	3	12	3	
31	1	10	3	
32	3	4	9	11	6	14	2	
33	4	4	8	6	6	6	4	11	2	
34	1	22	3	
35	3	8	4	8	2	4	2	
36	4	7	10	4	6	5	5	8	3	
37	5	8	12	4	10	5	9	9	5	24	3	
38	5	6	5	6	4	18	3	6	3	5	3	
39	3	23	3	22	3	10	2	
40	5	11	5	9	5	21	4	6	4	4	3	
41	1	4	6	
42	1	12	3	
43	1	18	3	
44	1	7	3	
45	3	6	5	7	4	7	3	
46	5	7	7	12	5	13	3	6	3	9	2	
47	2	8	3	7	3	
48	2	4	5	21	3	
49	3	5	8	22	4	6	3	
50	2	6	7	15	3	
51	2	7	4	17	2	
52	3	5	8	10	4	5	4	
53	3	8	11	6	7	4	4	
54	2	10	4	5	4	
55	4	7	12	9	4	6	4	10	2	
56	5	6	9	9	3	12	2	11	2	10	2	
57	3	11	4	5	4	23	3	
58	4	5	12	6	4	10	3	24	2	
59	5	4	9	7	7	11	4	4	4	8	3	
60	2	12	5	9	3	
61	1	15	2	
62	4	6	8	10	3	10	3	8	2	
63	3	11	5	8	5	7	3	
64	4	5	5	5	5	7	4	18	2	
65	2	5	4	22	3	
66	5	7	6	10	4	8	4	10	3	7	2	
67	4	7	12	11	6	8	6	7	3	
68	3	11	4	8	4	20	3	
69	1	13	3	
70	3	9	5	13	4	8	3	
71	5	4	11	10	5	9	4	22	3	15	2	
72	1	6	8	
73	3	5	10	4	3	19	2	
74	2	6	10	9	2	
75	3	7	5	4	3	5	2	
76	1	6	5	
77	1	6	8	
78	4	6	12	8	9	10	4	9	3	
79	4	6	11	5	6	21	3	6	3	
80	3	7	5	7	3	6	3	
81	5	4	11	7	8	7	7	7	3	7	3	
82	1	11	3	
83	3	7	11	7	8	14	3	
84	5	6	7	9	6	7	5	23	3	9	2	
85	5	6	4	5	4	23	3	7	3	6	3	
86	3	5	9	6	6	21	3	
87	1	20	4	
88	1	4	9	
89	5	6	11	5	5	7	4	11	3	4	3	
90	4	7	5	5	5	14	3	7	2	
91	1	19	3	
92	2	7	10	6	8	
93	5	4	10	6	7	5	6	7	5	5	4	
94	1	9	3	
95	1	5	3	
96	5	22	4	11	4	19	3	9	3	6	2	
97	3	7	12	8	7	7	4	
98	5	8	8	8	5	7	5	15	4	5	2	
99	4	7	4	23	3	12	3	9	3	
100	3	8	9	8	7	5	2	
101	5	8	9	4	9	18	4	14	2	10	2	
102	3	7	11	10	5	6	2	
103	3	7	12	11	4	8	4	
104	1	7	12	
105	2	6	8	5	3	
106	1	10	2	
107	5	8	5	8	4	5	4	15	3	14	3	
108	3	5	8	15	4	14	3	
109	3	5	4	19	3	9	3	
110	2	7	9	10	3	
111	4	7	4	8	3	7	3	11	2	
112	3	8	5	21	4	11	4	
113	5	5	12	22	3	6	3	20	2	12	2	
114	1	8	4	
115	2	4	11	20	3	
116	5	8	10	5	4	24	3	21	3	5	3	
117	4	7	6	5	5	9	4	5	3	
118	2	6	5	5	2	
119	4	5	10	10	4	17	3	14	3	
120	2	7	7	12	3	
121	2	17	3	10	3	
122	4	9	4	14	3	9	3	11	2	
123	5	5	11	8	10	13	3	9	2	9	2	
124	3	4	8	5	4	8	2	
125	4	5	8	5	7	7	4	10	2	
126	2	6	11	4	3	
127	3	11	4	14	3	14	2	
128	3	11	4	7	3	5	3	
129	5	5	7	13	3	11	3	10	3	10	2	
130	2	7	10	9	5	
131	1	9	3	
132	3	5	7	7	6	24	2	
133	2	7	4	5	2	
134	2	4	8	9	4	
135	4	7	6	12	4	11	4	5	4	
136	3	11	6	5	5	16	3	
137	1	22	3	
138	2	8	5	8	3	
139	4	10	5	11	3	18	2	12	2	
140	1	5	3	
141	4	7	10	10	4	7	4	8	3	
142	5	6	10	6	5	16	4	7	4	4	3	
143	2	17	4	4	4	
144	3	9	6	11	4	13	2	
145	2	6	7	8	2	
146	2	7	5	20	2	
147	3	6	9	6	8	9	4	
148	2	5	5	23	3	
149	3	6	5	24	2	13	2	
150	4	4	12	6	10	7	7	12	2	
151	2	11	4	5	2	
152	5	6	9	9	5	9	5	6	5	8	2	
153	5	8	5	10	4	9	3	8	3	7	3	
154	3	6	6	9	4	6	3	
155	2	5	6	11	4	
156	2	4	11	22	2	
157	2	12	4	16	2	
158	1	6	4	
159	3	21	4	9	3	4	3	
160	5	8	7	8	5	6	4	10	3	7	3	
161	1	9	3	
162	3	5	9	7	6	6	6	
163	5	8	4	24	3	19	3	11	3	8	2	
164	3	5	11	7	10	7	10	
165	4	6	5	7	4	22	3	6	2	
166	5	7	11	5	10	21	3	19	3	5	3	
167	2	7	5	5	5	
168	3	7	10	6	6	16	2	
169	4	5	11	10	3	5	3	21	2	
170	5	24	3	6	3	18	2	12	2	4	2	
171	2	9	3	8	3	
172	3	6	9	5	6	11	2	
173	5	6	12	6	11	5	8	5	6	5	5	
174	5	12	5	7	4	8	3	5	3	8	2	
175	1	11	4	
176	2	6	4	6	3	
177	4	7	9	4	4	18	3	4	2	
178	2	6	5	24	2	
179	2	6	11	9	3	
180	2	9	4	7	3	
181	5	12	5	13	4	4	4	20	3	9	2	
182	3	4	6	8	5	13	2	
183	1	4	11	
184	5	8	10	6	9	4	3	12	2	8	2	
185	2	18	3	9	2	
186	4	6	5	9	4	13	3	5	3	
187	4	5	12	8	9	5	8	10	5	
188	4	10	5	8	5	6	4	8	3	
189	4	10	5	7	5	8	4	12	2	
190	5	7	12	7	10	7	4	22	3	22	2	
191	2	5	10	4	2	
192	4	5	10	5	7	18	4	12	3	
193	4	5	8	12	3	6	3	18	2	
194	5	7	6	6	6	19	3	15	3	13	2	
195	4	4	10	5	6	10	5	8	3	
196	1	4	5	
197	1	7	4	
198	2	4	11	5	6	
199	2	10	5	21	4	
